p cnf 91 377
12 -31 57 58 -73 78 -79 0
-31 57 58 -73 78 79 0
1 -42 45 60 83 0
2 -35 -61 65 -74 0
-2 -6 -35 37 62 0
3 4 19 51 -68 0
3 -16 -49 -50 -51 0
3 19 23 32 56 0
3 23 -50 -51 68 0
-4 -61 -63 78 -84 0
7 -43 45 46 -87 0
10 20 -69 -72 -77 0
11 12 -28 -31 57 0
12 -14 57 58 -73 0
-13 68 -85 90 -91 0
20 -38 41 -70 71 0
-3 -16 -19 -51 91 0
1 2 6 -62 0
1 2 24 -62 0
1 3 24 59 0
1 42 -60 83 0
1 42 70 83 0
-2 -5 37 82 0
-3 -16 -19 91 0
-3 -50 51 -68 0
4 -6 82 84 0
-5 35 52 62 0
7 8 -47 55 0
7 8 -48 55 0
-7 -8 -42 -60 0
-8 46 -47 -64 0
9 46 -48 -55 0
10 21 69 -77 0
11 -31 -76 -80 0
13 14 -78 -79 0
13 85 -86 91 0
-13 66 86 90 0
-13 68 -85 90 0
-15 29 57 58 0
-15 58 76 80 0
-16 -50 68 -89 0
17 -44 71 -77 0
-18 -38 -64 -72 0
-18 -39 -48 -53 0
19 23 38 54 0
19 -33 -65 -80 0
-19 -24 -25 -28 0
-19 -25 -27 -34 0
20 21 22 88 0
20 -38 53 71 0
20 41 -54 -72 0
-20 -22 -53 70 0
-21 22 -69 88 0
25 33 56 59 0
25 65 75 76 0
29 -30 33 37 0
-31 58 -78 79 0
40 43 45 -87 0
-46 -47 55 64 0
50 66 67 -89 0
-66 -67 86 89 0
67 -68 -86 -89 0
1 3 56 -62 0
3 24 -32 -62 0
-8 46 60 83 0
11 57 -73 80 0
12 26 -27 -31 0
13 78 79 84 0
-17 22 -44 71 0
19 23 81 85 0
-19 67 -86 91 0
-29 -30 58 -73 0
-35 36 65 82 0
36 37 62 -63 0
40 45 55 64 0
52 78 82 -84 0
-66 86 89 90 0
1 2 -56 0
1 60 -87 0
1 69 88 0
1 83 88 0
-1 -3 32 0
-1 -3 50 0
-1 8 -88 0
-1 -10 -83 0
-1 -70 -83 0
2 5 61 0
-2 -5 61 0
3 -32 -61 0
-3 -23 -47 0
-3 -23 -51 0
4 25 -78 0
4 -67 89 0
4 79 -84 0
-4 52 -78 0
5 -37 63 0
6 -36 -37 0
-7 -8 -46 0
-8 10 -70 0
-8 45 -88 0
-8 48 -55 0
-8 -83 87 0
9 17 40 0
9 40 -43 0
-9 -40 43 0
10 11 34 0
10 -27 -33 0
-10 -26 57 0
-10 27 57 0
11 -23 -34 0
-11 -19 25 0
13 49 -86 0
13 57 86 0
13 85 91 0
-14 -73 76 0
15 30 57 0
17 44 77 0
-17 -19 -40 0
18 21 -77 0
18 39 64 0
-18 22 -77 0
-18 -41 -54 0
19 28 59 0
19 -33 -74 0
19 39 69 0
19 -51 68 0
-19 -47 81 0
-19 51 -85 0
-19 -79 84 0
-20 -53 70 0
21 23 69 0
21 70 -88 0
-21 -72 -77 0
-22 -41 53 0
23 27 34 0
23 -32 59 0
23 40 64 0
23 41 69 0
23 51 -91 0
23 -65 -80 0
23 -74 -75 0
-23 25 30 0
-23 -40 -43 0
-23 -85 -86 0
24 33 -35 0
25 32 -56 0
25 74 -80 0
26 31 34 0
29 37 73 0
30 -31 -73 0
32 33 61 0
32 -50 -66 0
-39 -40 -55 0
41 46 48 0
-41 -48 72 0
-43 -48 87 0
-46 47 64 0
-50 51 -89 0
51 -85 -91 0
-53 -54 72 0
58 -76 -80 0
-61 74 82 0
-63 -74 82 0
-66 -86 -90 0
-69 70 -88 0
1 3 0
1 7 0
1 27 0
1 32 0
1 69 0
-1 -2 0
-1 8 0
-1 -10 0
-1 -24 0
-1 -59 0
2 -32 0
2 56 0
2 84 0
-2 35 0
-2 -36 0
-2 -65 0
-2 74 0
-2 -82 0
3 4 0
3 -33 0
3 50 0
3 51 0
3 68 0
-3 -4 0
-3 -50 0
-3 67 0
4 16 0
4 -16 0
4 -27 0
4 44 0
4 49 0
4 -51 0
4 -52 0
4 61 0
-4 61 0
5 48 0
5 -52 0
5 -62 0
5 78 0
5 -78 0
5 -82 0
5 -84 0
-5 -63 0
-5 74 0
-5 78 0
-5 -82 0
6 35 0
6 -82 0
-6 -24 0
-6 52 0
-6 61 0
-6 -65 0
-6 -74 0
7 48 0
7 -60 0
7 64 0
-7 -45 0
-7 87 0
-7 -88 0
8 9 0
8 -37 0
8 45 0
8 -45 0
8 -46 0
8 -62 0
8 83 0
-8 -9 0
-8 42 0
-8 -83 0
-8 -87 0
9 -47 0
9 55 0
9 69 0
9 -87 0
-9 -44 0
-9 -45 0
-9 -60 0
10 21 0
10 26 0
10 -38 0
10 44 0
10 -57 0
10 -72 0
10 83 0
-10 -11 0
-10 24 0
-10 -26 0
-10 28 0
-10 32 0
-10 -83 0
11 -12 0
11 14 0
11 28 0
-11 13 0
-11 -14 0
-11 -15 0
-11 -30 0
-11 31 0
-11 -76 0
12 13 0
12 -19 0
12 34 0
12 -78 0
-12 -13 0
-12 31 0
-12 -31 0
-12 -57 0
-12 -58 0
-12 73 0
-12 78 0
-12 79 0
-12 -79 0
13 -31 0
13 49 0
13 57 0
13 -68 0
13 -90 0
-13 16 0
-13 28 0
-13 -49 0
-13 -67 0
-13 81 0
-13 -91 0
14 31 0
14 -57 0
14 -58 0
14 71 0
14 73 0
14 78 0
-14 57 0
-14 58 0
-14 78 0
15 31 0
15 57 0
15 -57 0
15 -58 0
-15 -58 0
16 50 0
16 51 0
-16 -23 0
-16 85 0
17 18 0
17 -21 0
17 23 0
-17 -18 0
-17 -23 0
-17 -39 0
-17 77 0
18 21 0
18 41 0
18 42 0
18 60 0
-18 81 0
19 26 0
19 -30 0
19 -36 0
19 47 0
19 59 0
19 68 0
19 -76 0
19 81 0
-19 25 0
-19 -26 0
-19 36 0
-19 -48 0
-19 53 0
-19 -53 0
-19 -69 0
-19 71 0
-19 -76 0
-19 78 0
-19 79 0
-19 -84 0
-19 -87 0
-19 89 0
20 -41 0
20 -70 0
-20 -21 0
-20 69 0
-20 72 0
-20 77 0
21 22 0
21 23 0
21 88 0
-21 38 0
-21 -88 0
22 41 0
22 -77 0
-22 41 0
-22 -88 0
23 42 0
23 60 0
23 -68 0
23 75 0
23 -91 0
-23 -24 0
-23 -28 0
-23 36 0
-23 -38 0
-23 -44 0
-23 -48 0
-23 -53 0
-23 -57 0
-23 -60 0
-23 65 0
-23 79 0
-23 -79 0
-23 80 0
-23 81 0
-23 -81 0
-23 -84 0
-23 -89 0
